;; produced by z3_gnatprove.drv ;;
(set-info :smt-lib-version 2.5)
(set-info :source |VC generated by SPARK 2014|)
(set-info :category industrial)
(set-info :status unknown)
;;; generated by SMT-LIB2 driver
;;; SMT-LIB2 driver: bit-vectors, common part
;;; SMT-LIB2: integer arithmetic
(declare-sort string 0)

(declare-datatypes () ((tuple0 (Tuple0))))
(declare-sort us_private 0)

(declare-fun private__bool_eq (us_private us_private) Bool)

(declare-const us_null_ext__ us_private)

(declare-sort us_type_of_heap 0)

(declare-datatypes ()
((us_type_of_heap__ref
 (us_type_of_heap__refqtmk (us_type_of_heap__content us_type_of_heap)))))
(declare-sort us_image 0)

(declare-datatypes () ((int__ref (int__refqtmk (int__content Int)))))
(declare-datatypes () ((bool__ref (bool__refqtmk (bool__content Bool)))))
(declare-datatypes ()
((us_fixed__ref (us_fixed__refqtmk (us_fixed__content Int)))))
(declare-datatypes () ((real__ref (real__refqtmk (real__content Real)))))
(declare-datatypes ()
((us_private__ref (us_private__refqtmk (us_private__content us_private)))))
(define-fun int__ref___projection ((a int__ref)) Int (int__content a))

(define-fun us_fixed__ref___projection ((a us_fixed__ref)) Int (us_fixed__content
                                                               a))

(define-fun bool__ref___projection ((a bool__ref)) Bool (bool__content a))

(define-fun real__ref___projection ((a real__ref)) Real (real__content a))

(define-fun us_private__ref___projection ((a us_private__ref)) us_private 
  (us_private__content a))

(declare-const attr__ATTRIBUTE_ADDRESS Int)

(declare-const attr__ATTRIBUTE_ADDRESS1 Int)

(declare-const attr__ATTRIBUTE_ADDRESS2 Int)

(declare-const attr__ATTRIBUTE_ADDRESS3 Int)

(declare-sort s1 0)

(declare-fun s1qtint (s1) Int)

;; s1'axiom
  (assert (forall ((i s1)) (and (<= 0 (s1qtint i)) (<= (s1qtint i) 17))))

(define-fun in_range ((x Int)) Bool (and (<= 0 x) (<= x 17)))

(declare-fun attr__ATTRIBUTE_IMAGE (Int) us_image)

(declare-fun attr__ATTRIBUTE_VALUE__pre_check (us_image) Bool)

(declare-fun attr__ATTRIBUTE_VALUE (us_image) Int)

(declare-fun user_eq (s1 s1) Bool)

(declare-const dummy s1)

(declare-datatypes () ((s1__ref (s1__refqtmk (s1__content s1)))))
(define-fun s1__ref_s1__content__projection ((a s1__ref)) s1 (s1__content a))

(define-fun dynamic_invariant ((temp___expr_182 Int)
  (temp___is_init_178 Bool) (temp___skip_constant_179 Bool)
  (temp___do_toplevel_180 Bool)
  (temp___do_typ_inv_181 Bool)) Bool (=>
                                     (or (= temp___is_init_178 true)
                                     (<= 0 17)) (in_range temp___expr_182)))

(declare-const v2 Int)

(declare-const t1 Int)

(declare-const t2 Int)

;; Assume
  (assert (dynamic_invariant v2 true false true true))

;; Assume
  (assert true)

;; Assume
  (assert (dynamic_invariant t1 false false true true))

;; Assume
  (assert true)

;; Assume
  (assert (dynamic_invariant t2 false false true true))

(declare-const t11 Int)

;; H
  (assert (= t11 v2))

(declare-const t21 Int)

;; H
  (assert (= t21 v2))

(assert
;; defqtvc
 ;; File "port.ads", line 132, characters 0-0
  (not (= t11 t21)))
(check-sat)
